
(set-logic ALL) 

(declare-datatype MyList ((Nil) (Cons (head Real) (tail MyList)) )) 
(declare-fun l0 () MyList) 
(declare-fun l1 () MyList) 
(declare-fun l2 () MyList) 
(declare-fun l3 () MyList) 
(declare-fun i0 () Real) 
(declare-fun i1 () Real) 
(assert (and (= l1 Nil) (= l1 Nil)) )
(assert (or (is-Nil l3) (is-Cons Nil)) )
(assert (= l1 Nil) )
(assert (not (= l2 Nil)) )
(assert (or (is-Cons Nil) (= l2 Nil) (is-Nil Nil) (= l3 Nil)) )
(assert (not (= l1 Nil)) )
(assert (not (= l1 Nil)) )
(assert (not (= l2 l2)) )
(check-sat)
